* ENCODING=ISO-8859-1
NAME          CPLEX
ROWS
 N  obj1    
 G  c1      
 G  c2      
 G  c3      
 G  c4      
 G  c5      
 G  c6      
 G  c7      
 G  c8      
 G  c9      
 G  c10     
 G  c11     
 G  c12     
 G  c13     
 G  c14     
 G  c15     
 G  c16     
 G  c17     
 G  c18     
 G  c19     
 G  c20     
 G  c21     
 G  c22     
 G  c23     
 G  c24     
 G  c25     
 G  c26     
 G  c27     
 G  c28     
 G  c29     
 G  c30     
 G  c31     
 G  c32     
 G  c33     
 G  c34     
 G  c35     
 G  c36     
 G  c37     
 G  c38     
 G  c39     
 G  c40     
COLUMNS
    MARK0000  'MARKER'                 'INTORG'
    x1        obj1                            1
    x1        c7                            974
    x1        c19                           987
    x2        obj1                            1
    x2        c1                            299
    x2        c17                           542
    x2        c22                           747
    x2        c24                           179
    x2        c27                           795
    x2        c29                           227
    x3        obj1                            1
    x3        c3                            325
    x3        c15                           568
    x3        c27                           339
    x3        c30                           973
    x4        obj1                            1
    x4        c12                           682
    x4        c15                           603
    x4        c24                           276
    x4        c25                           906
    x4        c29                           549
    x5        obj1                            1
    x5        c2                            769
    x5        c4                            403
    x5        c5                            541
    x5        c9                            803
    x5        c11                           414
    x5        c27                           147
    x6        obj1                            1
    x6        c1                            848
    x6        c24                           487
    x6        c26                           925
    x6        c31                           545
    x6        c35                           933
    x6        c38                           472
    x7        obj1                            1
    x7        c3                            413
    x7        c35                           297
    x7        c40                           506
    x8        obj1                            1
    x8        c21                           185
    x8        c24                           770
    x8        c38                           967
    x9        obj1                            1
    x9        c6                            289
    x10       obj1                            1
    x10       c2                            592
    x10       c12                           127
    x10       c13                           193
    x10       c31                           785
    x11       obj1                            1
    x11       c10                           969
    x11       c18                           597
    x11       c37                           717
    x12       obj1                            1
    x12       c12                           702
    x12       c13                           709
    x12       c21                           482
    x12       c31                           573
    x12       c39                           153
    x13       obj1                            1
    x13       c4                            989
    x13       c32                           762
    x14       obj1                            1
    x14       c8                            303
    x14       c10                           848
    x14       c12                           509
    x14       c17                           548
    x14       c40                           344
    x15       obj1                            1
    x15       c7                            683
    x15       c19                           847
    x15       c20                           465
    x15       c37                           286
    x16       obj1                            1
    x16       c6                            480
    x16       c17                           258
    x16       c30                           796
    x17       obj1                            1
    x17       c4                            542
    x17       c9                            724
    x17       c14                           320
    x17       c25                           228
    x17       c30                           689
    x18       obj1                            1
    x18       c13                           531
    x18       c16                           636
    x18       c23                           248
    x18       c31                           963
    x19       obj1                            1
    x19       c11                           987
    x19       c23                           672
    x19       c24                           504
    x19       c34                           259
    x19       c38                           843
    x20       obj1                            1
    x20       c1                            375
    x20       c8                            112
    x20       c13                           938
    x20       c14                           383
    x20       c18                           297
    x20       c25                           614
    x20       c26                           127
    x20       c34                           386
    x20       c37                           872
    x21       obj1                            1
    x21       c2                            337
    x21       c4                            116
    x21       c18                           217
    x21       c25                           213
    x22       obj1                            1
    x22       c38                           141
    x22       c40                           642
    x23       obj1                            1
    x23       c5                            514
    x23       c7                            860
    x23       c10                           947
    x23       c18                           736
    x23       c21                           418
    x23       c23                           974
    x23       c29                           456
    x24       obj1                            1
    x24       c4                            913
    x24       c34                           170
    x25       obj1                            1
    x25       c2                            665
    x25       c6                            899
    x25       c19                           507
    x25       c21                           832
    x25       c24                           225
    x25       c31                           508
    x25       c40                           957
    x26       obj1                            1
    x26       c3                            124
    x26       c4                            674
    x26       c10                           872
    x26       c16                           403
    x27       obj1                            1
    x27       c8                            549
    x27       c18                           548
    x27       c20                           172
    x27       c26                           528
    x27       c32                           677
    x27       c33                           810
    x28       obj1                            1
    x28       c8                            249
    x28       c31                           994
    x28       c35                           295
    x29       obj1                            1
    x29       c19                           716
    x29       c33                           449
    x29       c38                           940
    x30       obj1                            1
    x30       c15                           365
    x30       c25                           131
    x30       c26                           411
    x30       c28                           664
    x31       obj1                            1
    x31       c18                           754
    x31       c19                           923
    x31       c20                           734
    x31       c25                           657
    x31       c35                           691
    x32       obj1                            1
    x32       c5                            999
    x32       c13                           200
    x32       c19                           141
    x32       c35                           184
    x32       c37                           175
    x33       obj1                            1
    x33       c19                           135
    x33       c24                           875
    x33       c28                           559
    x33       c32                           193
    x33       c37                           571
    x33       c39                           377
    x34       obj1                            1
    x34       c1                            307
    x34       c2                            268
    x34       c4                            908
    x34       c37                           126
    x35       obj1                            1
    x35       c6                            264
    x35       c19                           563
    x35       c21                           411
    x35       c22                           220
    x35       c25                           593
    x35       c26                           885
    x35       c33                           793
    x36       obj1                            1
    x36       c1                            862
    x36       c5                            353
    x36       c37                           632
    x36       c38                           116
    x37       obj1                            1
    x37       c14                           976
    x37       c21                           841
    x37       c24                           305
    x38       obj1                            1
    x38       c28                           601
    x38       c34                           727
    x39       obj1                            1
    x39       c1                            263
    x39       c12                           521
    x39       c13                           882
    x39       c26                           908
    x39       c27                           330
    x40       obj1                            1
    x40       c6                            288
    x40       c12                           927
    x40       c14                           852
    x40       c31                           295
    x40       c36                           974
    x41       obj1                            1
    x41       c8                            679
    x41       c19                          1000
    x41       c23                           678
    x42       obj1                            1
    x42       c16                           819
    x42       c26                           729
    x42       c33                           473
    x42       c40                           331
    x43       obj1                            1
    x43       c14                           951
    x43       c26                           655
    x43       c37                           254
    x44       obj1                            1
    x44       c1                            322
    x44       c4                            847
    x44       c15                           853
    x44       c16                           142
    x44       c21                           916
    x44       c32                           956
    x44       c39                           590
    x45       obj1                            1
    x45       c12                           989
    x45       c20                           360
    x45       c22                           534
    x45       c27                           653
    x45       c30                           305
    x45       c37                           635
    x46       obj1                            1
    x46       c9                            216
    x46       c16                           546
    x46       c23                           548
    x46       c27                           603
    x46       c35                           356
    x47       obj1                            1
    x47       c8                            280
    x47       c25                           845
    x47       c28                           111
    x47       c29                           857
    x48       obj1                            1
    x48       c1                            106
    x48       c4                            192
    x48       c19                           676
    x48       c29                           979
    x48       c37                           431
    x49       obj1                            1
    x49       c1                            117
    x49       c8                            127
    x49       c9                            720
    x49       c15                           453
    x49       c21                           927
    x49       c31                           725
    x49       c33                           128
    x49       c39                           952
    x50       obj1                            1
    x50       c4                            266
    x50       c28                           834
    x51       obj1                            1
    x51       c37                           697
    x52       obj1                            1
    x52       c5                            993
    x52       c9                            658
    x52       c20                           765
    x52       c27                           221
    x52       c31                           263
    x53       obj1                            1
    x53       c5                            984
    x53       c14                           234
    x53       c38                           737
    x54       obj1                            1
    x54       c1                            260
    x54       c12                           838
    x54       c32                           391
    x54       c40                           718
    x55       obj1                            1
    x55       c6                            536
    x55       c21                           709
    x55       c30                           566
    x56       obj1                            1
    x56       c1                            510
    x56       c28                           595
    x57       obj1                            1
    x57       c6                            506
    x57       c9                            197
    x57       c28                           963
    x57       c29                           480
    x57       c33                           949
    x57       c38                           615
    x58       obj1                            1
    x58       c10                           722
    x58       c39                           447
    x59       obj1                            1
    x59       c15                           898
    x59       c23                           724
    x59       c24                           295
    x59       c32                           928
    x60       obj1                            1
    x60       c3                            610
    x60       c8                            225
    x60       c9                            435
    x60       c11                           215
    x60       c18                           296
    x60       c29                           714
    x60       c35                           270
    x60       c38                           514
    x61       obj1                            1
    x61       c8                            552
    x61       c26                           644
    x62       obj1                            1
    x62       c4                            362
    x62       c7                            367
    x62       c12                           775
    x63       obj1                            1
    x63       c5                            237
    x63       c14                           881
    x63       c28                           900
    x63       c40                           872
    x64       obj1                            1
    x64       c10                           571
    x64       c11                           933
    x65       obj1                            1
    x65       c6                            310
    x65       c12                           558
    x65       c19                           830
    x65       c40                           881
    x66       obj1                            1
    x66       c4                            452
    x66       c9                            830
    x66       c25                           489
    x66       c36                           508
    x67       obj1                            1
    x67       c8                            756
    x67       c9                            907
    x67       c23                           735
    x67       c26                           359
    x67       c38                           613
    x68       obj1                            1
    x68       c8                            474
    x68       c9                            285
    x68       c15                           853
    x68       c28                           338
    x69       obj1                            1
    x69       c10                           907
    x70       obj1                            1
    x70       c25                           765
    x70       c27                           957
    x70       c32                           272
    x71       obj1                            1
    x71       c2                            547
    x71       c6                            941
    x71       c21                           476
    x71       c26                           875
    x71       c30                           305
    x71       c39                           450
    x72       obj1                            1
    x72       c14                           645
    x72       c18                           393
    x72       c35                           242
    x73       obj1                            1
    x73       c6                            566
    x73       c18                           668
    x74       obj1                            1
    x74       c6                            597
    x74       c25                           425
    x74       c35                           453
    x74       c36                           472
    x75       obj1                            1
    x75       c1                            753
    x75       c8                            801
    x75       c30                           607
    x76       obj1                            1
    x76       c21                           992
    x76       c28                           904
    x77       obj1                            1
    x77       c22                           708
    x77       c36                           523
    x78       obj1                            1
    x78       c12                           745
    x78       c13                           429
    x78       c17                           707
    x78       c24                           299
    x78       c29                           602
    x78       c30                           589
    x78       c34                           231
    x79       obj1                            1
    x79       c18                           405
    x79       c21                           836
    x79       c28                           486
    x79       c31                           760
    x79       c37                           507
    x79       c38                           190
    x80       obj1                            1
    x80       c28                           934
    x80       c31                           408
    x80       c35                           234
    MARK0001  'MARKER'                 'INTEND'
RHS
    rhs       c1                           2511
    rhs       c2                           1589
    rhs       c3                            736
    rhs       c4                           3332
    rhs       c5                           2311
    rhs       c6                           2838
    rhs       c7                           1442
    rhs       c8                           2554
    rhs       c9                           2888
    rhs       c10                          2918
    rhs       c11                          1275
    rhs       c12                          3687
    rhs       c13                          1941
    rhs       c14                          2621
    rhs       c15                          2297
    rhs       c16                          1273
    rhs       c17                          1028
    rhs       c18                          2456
    rhs       c19                          3663
    rhs       c20                          1248
    rhs       c21                          4013
    rhs       c22                          1105
    rhs       c23                          2290
    rhs       c24                          2108
    rhs       c25                          2933
    rhs       c26                          3523
    rhs       c27                          2023
    rhs       c28                          3945
    rhs       c29                          2432
    rhs       c30                          2415
    rhs       c31                          3410
    rhs       c32                          2090
    rhs       c33                          1801
    rhs       c34                           887
    rhs       c35                          1978
    rhs       c36                          1239
    rhs       c37                          2952
    rhs       c38                          3074
    rhs       c39                          1485
    rhs       c40                          2626
BOUNDS
 LI bnd       x1        0
 LI bnd       x2        0
 LI bnd       x3        0
 LI bnd       x4        0
 LI bnd       x5        0
 LI bnd       x6        0
 LI bnd       x7        0
 LI bnd       x8        0
 LI bnd       x9        0
 LI bnd       x10       0
 LI bnd       x11       0
 LI bnd       x12       0
 LI bnd       x13       0
 LI bnd       x14       0
 LI bnd       x15       0
 LI bnd       x16       0
 LI bnd       x17       0
 LI bnd       x18       0
 LI bnd       x19       0
 LI bnd       x20       0
 LI bnd       x21       0
 LI bnd       x22       0
 LI bnd       x23       0
 LI bnd       x24       0
 LI bnd       x25       0
 LI bnd       x26       0
 LI bnd       x27       0
 LI bnd       x28       0
 LI bnd       x29       0
 LI bnd       x30       0
 LI bnd       x31       0
 LI bnd       x32       0
 LI bnd       x33       0
 LI bnd       x34       0
 LI bnd       x35       0
 LI bnd       x36       0
 LI bnd       x37       0
 LI bnd       x38       0
 LI bnd       x39       0
 LI bnd       x40       0
 LI bnd       x41       0
 LI bnd       x42       0
 LI bnd       x43       0
 LI bnd       x44       0
 LI bnd       x45       0
 LI bnd       x46       0
 LI bnd       x47       0
 LI bnd       x48       0
 LI bnd       x49       0
 LI bnd       x50       0
 LI bnd       x51       0
 LI bnd       x52       0
 LI bnd       x53       0
 LI bnd       x54       0
 LI bnd       x55       0
 LI bnd       x56       0
 LI bnd       x57       0
 LI bnd       x58       0
 LI bnd       x59       0
 LI bnd       x60       0
 LI bnd       x61       0
 LI bnd       x62       0
 LI bnd       x63       0
 LI bnd       x64       0
 LI bnd       x65       0
 LI bnd       x66       0
 LI bnd       x67       0
 LI bnd       x68       0
 LI bnd       x69       0
 LI bnd       x70       0
 LI bnd       x71       0
 LI bnd       x72       0
 LI bnd       x73       0
 LI bnd       x74       0
 LI bnd       x75       0
 LI bnd       x76       0
 LI bnd       x77       0
 LI bnd       x78       0
 LI bnd       x79       0
 LI bnd       x80       0
ENDATA
